(set-info :Origin "This instance was generated by: BanditFuzz-- an RL fuzzer for SMT solvers" )
(set-info :Author "Joe Scott, Fed Mora, Vijay Ganesh" )
(set-info :Contact "Joe Scott, joseph.scott@uwaterloo.ca")
; solvers/z3.sh
; 	time => 0.21316099166870117
; 	answer => err
; solvers/bitwuzla.sh
; 	time => 0.19075608253479004
; 	answer => err
; solvers/cvc4.sh
; 	time => 0.23887944221496582
; 	answer => err
(set-logic QF_BV)
(declare-const bool_0 Bool)
(declare-const bool_1 Bool)
(declare-const bool_2 Bool)
(declare-const bool_3 Bool)
(declare-const bool_4 Bool)
(declare-const bv_0 (_ BitVec 8))
(declare-const bv_1 (_ BitVec 8))
(declare-const bv_2 (_ BitVec 8))
(declare-const bv_3 (_ BitVec 8))
(declare-const bv_4 (_ BitVec 8))
(assert (bvule (bvsdiv (bvudiv bv_2 bv_0) (bvnor bv_1 bv_4)) (bvmul (bvashr #x00000028  #x000000ad ) (bvnand #x000000e3  bv_3))))
(assert (xor (=> (=> true bool_2) (not bool_1)) (xor (bvslt bv_2 #x0000008a ) (bvslt bv_3 #x0000004c ))))
(assert (bvuge (bvand (bvxnor bv_2 bv_4) (bvxnor bv_0 #x00000027 )) (bvsrem (bvmul bv_2 bv_3) (bvudiv #x00000033  bv_3))))
(assert (bvugt (bvadd (bvashr #x00000002  #x000000c7 ) (bvor bv_4 #x00000057 )) (bvor (bvsrem #x0000001a  #x00000055 ) (bvxor bv_1 bv_1))))
(assert (bvule (bvudiv (bvlshr #x000000b8  #x0000002f ) (bvsdiv #x000000f3  #x00000094 )) (bvxor (bvurem #x0000006c  #x0000005e ) (bvashr #x0000003e  bv_4))))
(check-sat)
(exit)
